Linux optc-09-06 4.15.0-58-generic #64-Ubuntu SMP Tue Aug 6 11:12:41 UTC 2019 x86_64 x86_64 x86_64 GNU/Linux

top - 00:07:48 up 1 day, 14:08,  0 users,  load average: 0,85, 0,97, 0,99
Tasks: 291 gesamt,   1 laufend, 150 schlafend,   0 gestoppt,   0 Zombie
%CPU(s):  7,5 be,  0,2 sy,  0,0 ni, 92,3 un,  0,0 wa,  0,0 hi,  0,0 si,  0,0 st
KiB Spch : 97514992 gesamt, 94937040 frei,   648844 belegt,  1929108 Puff/Cache
KiB Swap:  8388604 gesamt,  8388604 frei,        0 belegt. 96123896 verfü Spch 

  PID USER      PR  NI    VIRT    RES    SHR S  %CPU %MEM     ZEIT+ BEFEHL
    1 root      20   0  225648   9400   6704 S   0,0  0,0   0:12.60 systemd
    2 root      20   0       0      0      0 S   0,0  0,0   0:00.12 kthreadd
    3 root      20   0       0      0      0 I   0,0  0,0   0:02.32 kworker/0:0
    4 root       0 -20       0      0      0 I   0,0  0,0   0:00.00 kworker/0:+
    6 root      20   0       0      0      0 I   0,0  0,0   0:00.00 kworker/u3+
    7 root       0 -20       0      0      0 I   0,0  0,0   0:00.00 mm_percpu_+
    8 root      20   0       0      0      0 S   0,0  0,0   0:00.02 ksoftirqd/0
    9 root      20   0       0      0      0 I   0,0  0,0   0:14.37 rcu_sched

hard time limit: 04:10:00
hard mem limit: 55100

SLURM jobID: 2182708

@01 /nfs/optimi/kombadon/IP/coral/neos-555298.mps.gz ===========
-----------------------------
Fr 23. Aug 00:07:48 CEST 2019
-----------------------------
@03 1566511668
@05 7200
SCIP version 6.0.0 [precision: 8 byte] [memory: block] [mode: optimized] [LP solver: CPLEX 12.8.0.0] [GitHash: 41ab6e0014]
Copyright (C) 2002-2018 Konrad-Zuse-Zentrum fuer Informationstechnik Berlin (ZIB)

External codes: 
  Readline 7.0         GNU library for command line editing (gnu.org/s/readline)
  CPLEX 12.8.0.0       Linear Programming Solver developed by IBM (www.cplex.com)
  CppAD 20180000.0     Algorithmic Differentiation of C++ algorithms developed by B. Bell (www.coin-or.org/CppAD)
  ZLIB 1.2.11          General purpose compression library by J. Gailly and M. Adler (zlib.net)
  GMP 6.1.2            GNU Multiple Precision Arithmetic Library developed by T. Granlund (gmplib.org)
  bliss 0.73p          Computing Graph Automorphism Groups by T. Junttila and P. Kaski (http://www.tcs.hut.fi/Software/bliss/)

user parameter file <scip.set> not found - using default parameters

SCIP> 
SCIP> set load /home/optimi/bzfhende/opti/scip-opti/check/../settings/enable_treeeprofile.set
loaded parameter file </home/optimi/bzfhende/opti/scip-opti/check/../settings/enable_treeprofile.set>
SCIP> set misc referencevalue 1174300
misc/referencevalue = 1174300
SCIP> set limits time 7200
limits/time = 7200
SCIP> set limits nodes 2100000000
limits/nodes = 2100000000
SCIP> set limits memory 50000
limits/memory = 50000
SCIP> set lp advanced threads 1
lp/threads = 1
SCIP> set timing clocktype 1
timing/clocktype = 1
SCIP> set display freq 10000
display/freq = 10000
SCIP> set memory savefac 1.0
memory/savefac = 1
SCIP> set save /home/optimi/bzfhende/opti/scip-opti/check/treesize.estimation.jouurnal.3/bzfhende.MMMc.244_neos-555298.scip.M640.enable_treeprofile.set
saved parameter file </home/optimi/bzfhende/opti/scip-opti/check/treesize.estimation.journal.3/bzfhende.MMMc.244_neos-555298.scip.M640.enable_treeprofile.set>
SCIP> read /nfs/optimi/kombadon/IP/coral/neos-555298.mps.gz

read problem </nfs/optimi/kombadon/IP/coral/neos-555298.mps.gz>
============

original problem has 4827 variables (4812 bin, 15 int, 0 impl, 0 cont) and 2755 constraints
SCIP> display parameters

number of parameters = 2448
non-default parameter settings:
display/freq = 10000
limits/time = 7200
limits/nodes = 2100000000
limits/memory = 50000
lp/threads = 1
memory/savefac = 1
misc/referencevalue = 1174300
presolving/maxrestarts = 0
estimates/profile/enabled = TRUE
estimates/profile/maxdepthfactor = 10
estimates/profile/freq = 0

SCIP> optimize

Activating tree profile data collection
presolving:
(round 1, fast)       7 del vars, 7 del conss, 60 add conss, 0 chg bounds, 107 chg sides, 0 chg coeffs, 0 upgd conss, 0 impls, 1344 clqs
(round 2, exhaustive) 7 del vars, 114 del conss, 60 add conss, 0 chg bounds, 107 chg sides, 0 chg coeffs, 0 upgd conss, 0 impls, 1344 clqs
(round 3, exhaustive) 7 del vars, 114 del conss, 60 add conss, 0 chg bounds, 107 chg sides, 0 chg coeffs, 2413 upgd conss, 0 impls, 1344 clqs
(round 4, fast)       67 del vars, 114 del conss, 60 add conss, 0 chg bounds, 107 chg sides, 0 chg coeffs, 2413 upgd conss, 0 impls, 1344 clqs
(round 5, fast)       127 del vars, 179 del conss, 60 add conss, 0 chg bounds, 107 chg sides, 0 chg coeffs, 2413 upgd conss, 0 impls, 1284 clqs
(round 6, medium)     187 del vars, 1084 del conss, 3240 add conss, 0 chg bounds, 107 chg sides, 0 chg coeffs, 2413 upgd conss, 0 impls, 4344 clqs
(round 7, exhaustive) 187 del vars, 1084 del conss, 3240 add conss, 0 chg bounds, 107 chg sides, 0 chg coeffs, 2473 upgd conss, 0 impls, 4404 clqs
   (0.1s) sparsify finished: 1344/19670 (6.8%) nonzeros canceled - in total 1344 canceled nonzeros, 1351 changed coefficients, 0 added nonzeros
(round 8, exhaustive) 187 del vars, 1084 del conss, 3240 add conss, 0 chg bounds, 107 chg sides, 1351 chg coeffs, 2473 upgd conss, 0 impls, 4404 clqs
   (0.1s) probing: 51/4632 (1.1%) - 0 fixings, 0 aggregations, 0 implications, 0 bound changes
   (0.1s) probing aborted: 50/50 successive totally useless probings
presolving (9 rounds: 9 fast, 6 medium, 5 exhaustive):
 187 deleted vars, 1085 deleted constraints, 3240 added constraints, 0 tightened bounds, 0 added holes, 107 changed sides, 1351 changed coefficients
 0 implications, 4404 cliques
presolved problem has 4640 variables (4632 bin, 8 int, 0 impl, 0 cont) and 4910 constraints
    219 constraints of type <knapsack>
   4344 constraints of type <setppc>
    287 constraints of type <linear>
     60 constraints of type <logicor>
transformed objective value is always integral (scale: 100)
Presolving Time: 0.10

 time | node  | left  |LP iter|LP it/n| mem |mdpt |frac |vars |cons |cols |rows |cuts |confs|strbr|  dualbound   | primalbound  |  gap   
Q 0.2s|     1 |     0 |   253 |     - |  39M|   0 |   - |4640 |4910 |4640 |4910 |   0 |   0 |   0 | 3.100000e+05 | 2.806700e+06 | 805.39%
  0.4s|     1 |     0 |  1868 |     - |  43M|   0 |1075 |4640 |4972 |4640 |4910 |   0 |  62 |   0 | 1.174300e+06 | 2.806700e+06 | 139.01%
  0.4s|     1 |     0 |  1868 |     - |  43M|   0 |1075 |4640 |4972 |4640 |4910 |   0 |  62 |   0 | 1.174300e+06 | 2.806700e+06 | 139.01%
  0.7s|     1 |     0 |  2209 |     - |  48M|   0 |1089 |4640 |4972 |4640 |4958 |  48 |  62 |   0 | 1.174300e+06 | 2.806700e+06 | 139.01%
  1.0s|     1 |     0 |  2525 |     - |  50M|   0 |1104 |4640 |4972 |4640 |5007 |  97 |  62 |   0 | 1.174300e+06 | 2.806700e+06 | 139.01%
s 1.0s|     1 |     0 |  2525 |     - |  50M|   0 |1104 |4640 |4962 |4640 |5007 |  97 |  62 |   0 | 1.174300e+06 | 2.191000e+06 |  86.58%
  1.4s|     1 |     0 |  2737 |     - |  57M|   0 |1058 |4640 |4962 |4640 |5048 | 138 |  62 |   0 | 1.174300e+06 | 2.191000e+06 |  86.58%
  1.4s|     1 |     0 |  2737 |     - |  57M|   0 |1058 |4640 |4962 |4640 |5048 | 138 |  62 |   0 | 1.174300e+06 | 2.191000e+06 |  86.58%
  1.4s|     1 |     0 |  2737 |     - |  57M|   0 |1058 |4640 |4962 |4640 |5048 | 138 |  62 |   0 | 1.174300e+06 | 2.191000e+06 |  86.58%
  1.7s|     1 |     0 |  2958 |     - |  61M|   0 |1131 |4640 |4962 |4640 |5088 | 178 |  62 |   0 | 1.174300e+06 | 2.191000e+06 |  86.58%
  2.2s|     1 |     0 |  3133 |     - |  65M|   0 |1115 |4640 |4962 |4640 |5111 | 201 |  62 |   0 | 1.174300e+06 | 2.191000e+06 |  86.58%
  2.6s|     1 |     0 |  3289 |     - |  67M|   0 |1062 |4640 |4962 |4640 |5136 | 226 |  62 |   0 | 1.174300e+06 | 2.191000e+06 |  86.58%
  3.0s|     1 |     0 |  3580 |     - |  71M|   0 |1063 |4640 |4962 |4640 |5170 | 260 |  62 |   0 | 1.174300e+06 | 2.191000e+06 |  86.58%
  3.5s|     1 |     0 |  3799 |     - |  74M|   0 |1001 |4640 |4962 |4640 |5204 | 294 |  62 |   0 | 1.174300e+06 | 2.191000e+06 |  86.58%
  3.9s|     1 |     0 |  4037 |     - |  79M|   0 | 981 |4640 |4962 |4640 |5229 | 319 |  62 |   0 | 1.174300e+06 | 2.191000e+06 |  86.58%
 time | node  | left  |LP iter|LP it/n| mem |mdpt |frac |vars |cons |cols |rows |cuts |confs|strbr|  dualbound   | primalbound  |  gap   
  4.3s|     1 |     0 |  4235 |     - |  83M|   0 | 958 |4640 |4962 |4640 |5254 | 344 |  62 |   0 | 1.174300e+06 | 2.191000e+06 |  86.58%
  4.7s|     1 |     0 |  4342 |     - |  84M|   0 | 927 |4640 |4962 |4640 |5272 | 362 |  62 |   0 | 1.174300e+06 | 2.191000e+06 |  86.58%
  4.7s|     1 |     0 |  4342 |     - |  84M|   0 | 927 |4640 |4962 |4640 |5272 | 362 |  62 |   0 | 1.174300e+06 | 2.191000e+06 |  86.58%
  5.0s|     1 |     0 |  4428 |     - |  85M|   0 | 899 |4640 |4962 |4640 |5290 | 380 |  62 |   0 | 1.174300e+06 | 2.191000e+06 |  86.58%
  5.4s|     1 |     0 |  4540 |     - |  85M|   0 | 880 |4640 |4962 |4640 |5302 | 392 |  62 |   0 | 1.174300e+06 | 2.191000e+06 |  86.58%
  5.7s|     1 |     0 |  4640 |     - |  86M|   0 | 814 |4640 |4962 |4640 |5321 | 411 |  62 |   0 | 1.174300e+06 | 2.191000e+06 |  86.58%
  6.1s|     1 |     0 |  4726 |     - |  87M|   0 | 768 |4640 |4962 |4640 |5251 | 424 |  62 |   0 | 1.174300e+06 | 2.191000e+06 |  86.58%
  6.4s|     1 |     0 |  4809 |     - |  87M|   0 | 752 |4640 |4962 |4640 |5262 | 435 |  62 |   0 | 1.174300e+06 | 2.191000e+06 |  86.58%
  6.7s|     1 |     0 |  5001 |     - |  89M|   0 | 729 |4640 |4962 |4640 |5278 | 451 |  62 |   0 | 1.174300e+06 | 2.191000e+06 |  86.58%
  7.0s|     1 |     0 |  5127 |     - |  89M|   0 | 666 |4640 |4962 |4640 |5302 | 475 |  62 |   0 | 1.174300e+06 | 2.191000e+06 |  86.58%
  7.3s|     1 |     0 |  5268 |     - |  89M|   0 | 638 |4640 |4962 |4640 |5325 | 498 |  62 |   0 | 1.174300e+06 | 2.191000e+06 |  86.58%
  7.5s|     1 |     0 |  5497 |     - |  93M|   0 | 688 |4640 |4962 |4640 |5348 | 521 |  62 |   0 | 1.174300e+06 | 2.191000e+06 |  86.58%
  7.6s|     1 |     0 |  5596 |     - |  93M|   0 | 658 |4640 |4962 |4640 |5265 | 537 |  62 |   0 | 1.174300e+06 | 2.191000e+06 |  86.58%
  7.6s|     1 |     0 |  5637 |     - |  93M|   0 | 659 |4640 |4962 |4640 |5276 | 548 |  62 |   0 | 1.174300e+06 | 2.191000e+06 |  86.58%
u 8.7s|     1 |     0 | 12448 |     - |  94M|   0 |   - |4640 |4962 |4640 |5276 |   0 |  62 |   0 | 1.174300e+06 | 1.174300e+06 |   0.00%
SCIP nodes: 1 Estimation: -1
 time | node  | left  |LP iter|LP it/n| mem |mdpt |frac |vars |cons |cols |rows |cuts |confs|strbr|  dualbound   | primalbound  |  gap   
  8.7s|     1 |     0 | 12448 |     - |  94M|   0 |   - |4640 |4962 |4640 |5276 | 548 |  62 |   0 | 1.174300e+06 | 1.174300e+06 |   0.00%
Report 1
Time Elapsed: 8.73
  Tree Data        : 1 nodes (1 visited, 0 inner, 1 leaves, 0 open), progress: 1.0000
Tree Estimation    :       estim       value       trend  resolution      smooth
  wbe              :          -1           -           -           -           -
  tree profile     :          -1           -           -           -           -
  gap              :           1     1.00000     1.00000           1           1
  progress         :           1     1.00000     1.00000           1           1
  leaf-frequency   :           1     0.50000     1.00000           1           1
  ssg              :           1     0.00000    -1.00000           1           1
  open-nodes       :           1     0.00000     0.00000           1           1
End of Report 1


SCIP Status        : problem is solved [optimal solution found]
Solving Time (sec) : 8.73
Solving Nodes      : 1
Primal Bound       : +1.17430000000000e+06 (3 solutions)
Dual Bound         : +1.17430000000000e+06
Gap                : 0.00 %

SCIP> display statistics

SCIP Status        : problem is solved [optimal solution found]
Total Time         :       8.74
  solving          :       8.73
  presolving       :       0.10 (included in solving)
  reading          :       0.01
  copying          :       0.01 (1 #copies) (minimal 0.01, maximal 0.01, average 0.01)
Original Problem   :
  Problem name     : file
  Variables        : 4827 (4812 binary, 15 integer, 0 implicit integer, 0 continuous)
  Constraints      : 2755 initial, 2755 maximal
  Objective        : minimize, 8 non-zeros (abs.min = 2100, abs.max = 310000)
Presolved Problem  :
  Problem name     : t_file
  Variables        : 4640 (4632 binary, 8 integer, 0 implicit integer, 0 continuous)
  Constraints      : 4910 initial, 4972 maximal
  Objective        : minimize, 1105 non-zeros (abs.min = 21, abs.max = 3100)
Presolvers         :   ExecTime  SetupTime  Calls  FixedVars   AggrVars   ChgTypes  ChgBounds   AddHoles    DelCons    AddCons   ChgSides   ChgCoefs
  boundshift       :       0.00       0.00      0          0          0          0          0          0          0          0          0          0
  convertinttobin  :       0.00       0.00      0          0          0          0          0          0          0          0          0          0
  domcol           :       0.00       0.00      2          0          0          0          0          0          0          0          0          0
  dualagg          :       0.00       0.00      0          0          0          0          0          0          0          0          0          0
  dualcomp         :       0.00       0.00      0          0          0          0          0          0          0          0          0          0
  dualinfer        :       0.00       0.00      0          0          0          0          0          0          0          0          0          0
  gateextraction   :       0.01       0.00      3          0          0          0          0          0          0          0          0          0
  implics          :       0.00       0.00      6          0          0          0          0          0          0          0          0          0
  inttobinary      :       0.00       0.00      9          0          0          0          0          0          0          0          0          0
  qpkktref         :       0.00       0.00      0          0          0          0          0          0          0          0          0          0
  redvub           :       0.00       0.00      0          0          0          0          0          0          0          0          0          0
  sparsify         :       0.03       0.00      2          0          0          0          0          0          0          0          0       1351
  stuffing         :       0.00       0.00      0          0          0          0          0          0          0          0          0          0
  symbreak         :       0.00       0.00      0          0          0          0          0          0          0          0          0          0
  symmetry         :       0.00       0.00      0          0          0          0          0          0          0          0          0          0
  trivial          :       0.00       0.00      9          0          0          0          0          0          0          0          0          0
  tworowbnd        :       0.00       0.00      0          0          0          0          0          0          0          0          0          0
  dualfix          :       0.00       0.00      9          0          0          0          0          0          0          0          0          0
  genvbounds       :       0.00       0.00      0          0          0          0          0          0          0          0          0          0
  orbitalfixing    :       0.00       0.00      0          0          0          0          0          0          0          0          0          0
  probing          :       0.02       0.00      1          0          0          0          0          0          0          0          0          0
  pseudoobj        :       0.00       0.00      0          0          0          0          0          0          0          0          0          0
  vbounds          :       0.00       0.00      2          0          0          0          0          0          0          0          0          0
  knapsack         :       0.01       0.00     13          0          0          0          0          0        790       3120          0          0
  setppc           :       0.02       0.00     13         60        120          0          0          0        180         60          0          0
  linear           :       0.01       0.01     14          0          7          0          0          0        115         60        107          0
  logicor          :       0.00       0.00     12          0          0          0          0          0          0          0          0          0
  bounddisjunction :       0.00       0.00      0          0          0          0          0          0          0          0          0          0
  benders          :       0.00       0.00      0          0          0          0          0          0          0          0          0          0
  components       :       0.00       0.00      1          0          0          0          0          0          0          0          0          0
  root node        :          -          -      -          0          -          -         11          -          -          -          -          -
Constraints        :     Number  MaxNumber  #Separate #Propagate    #EnfoLP    #EnfoRelax  #EnfoPS    #Check   #ResProp    Cutoffs    DomReds       Cuts    Applied      Conss   Children
  benderslp        :          0          0          0          0          0          0          0         11          0          0          0          0          0          0          0
  integral         :          0          0          0          0          0          0          0         11          0          0          0          0          0          0          0
  knapsack         :        219        219         22      20066          0          0          0          6          5          1          0          0          0          0          0
  setppc           :       4344       4344         22      20065          0          0          0          4        814          5          0          0          0          0          0
  linear           :        287        287         22      20060          0          0          0          4        421         58          7        510        201          0          0
  logicor          :         60+       104         22       1160          0          0          0          0         10          0          0          0          0          0          0
  bounddisjunction :          0+        18          0        116          0          0          0          0          0          0          0          0          0          0          0
  benders          :          0          0          0          0          0          0          0          4          0          0          0          0          0          0          0
  countsols        :          0          0          0          0          0          0          0          4          0          0          0          0          0          0          0
  components       :          0          0          0          0          0          0          0          0          0          0          0          0          0          0          0
Constraint Timings :  TotalTime  SetupTime   Separate  Propagate     EnfoLP     EnfoPS     EnfoRelax   Check    ResProp    SB-Prop
  benderslp        :       0.00       0.00       0.00       0.00       0.00       0.00       0.00       0.00       0.00       0.00
  integral         :       0.00       0.00       0.00       0.00       0.00       0.00       0.00       0.00       0.00       0.00
  knapsack         :       0.01       0.00       0.00       0.01       0.00       0.00       0.00       0.00       0.00       0.00
  setppc           :       0.06       0.00       0.01       0.05       0.00       0.00       0.00       0.00       0.00       0.00
  linear           :       0.13       0.01       0.10       0.02       0.00       0.00       0.00       0.00       0.00       0.00
  logicor          :       0.00       0.00       0.00       0.00       0.00       0.00       0.00       0.00       0.00       0.00
  bounddisjunction :       0.00       0.00       0.00       0.00       0.00       0.00       0.00       0.00       0.00       0.00
  benders          :       0.00       0.00       0.00       0.00       0.00       0.00       0.00       0.00       0.00       0.00
  countsols        :       0.00       0.00       0.00       0.00       0.00       0.00       0.00       0.00       0.00       0.00
  components       :       0.02       0.00       0.00       0.02       0.00       0.00       0.00       0.00       0.00       0.00
Propagators        : #Propagate   #ResProp    Cutoffs    DomReds
  dualfix          :          5          0          0          0
  genvbounds       :          0          0          0          0
  nlobbt           :          0          0          0          0
  obbt             :          0          0          0          0
  orbitalfixing    :          0          0          0          0
  probing          :          0          0          0          0
  pseudoobj        :         37          0          0          2
  redcost          :         28          0          0          2
  rootredcost      :          0          0          0          0
  vbounds          :      19968          0          0          0
Propagator Timings :  TotalTime  SetupTime   Presolve  Propagate    ResProp    SB-Prop
  dualfix          :       0.00       0.00       0.00       0.00       0.00       0.00
  genvbounds       :       0.01       0.00       0.00       0.01       0.00       0.00
  nlobbt           :       0.00       0.00       0.00       0.00       0.00       0.00
  obbt             :       0.00       0.00       0.00       0.00       0.00       0.00
  orbitalfixing    :       0.00       0.00       0.00       0.00       0.00       0.00
  probing          :       0.02       0.00       0.02       0.00       0.00       0.00
  pseudoobj        :       0.02       0.00       0.00       0.02       0.00       0.00
  redcost          :       0.00       0.00       0.00       0.00       0.00       0.00
  rootredcost      :       0.00       0.00       0.00       0.00       0.00       0.00
  vbounds          :       0.01       0.00       0.00       0.01       0.00       0.00
Conflict Analysis  :       Time      Calls    Success    DomReds  Conflicts   Literals    Reconvs ReconvLits   Dualrays   Nonzeros   LP Iters   (pool size: [10000,10000])
  propagation      :       0.00          6          6          -        446      242.7          1      130.0          -          -          -
  infeasible LP    :       0.00          0          0          -          0        0.0          0        0.0          0        0.0          0
  bound exceed. LP :       0.00          1          1          -         18      106.9          0        0.0          0        0.0         10
  strong branching :       0.00          0          0          -          0        0.0          0        0.0          -          -          0
  pseudo solution  :       0.00          0          0          -          0        0.0          0        0.0          -          -          -
  applied globally :       0.00          -          -          0         62      137.3          -          -          0          -          -
  applied locally  :          -          -          -          0          0        0.0          -          -          0          -          -
Separators         :   ExecTime  SetupTime      Calls    Cutoffs    DomReds       Cuts    Applied      Conss
  cut pool         :       0.03                    42          -          -       2083          -          -    (maximal pool size: 4404)
  aggregation      :       0.32       0.00         22          0          0          0          0          0
  cgmip            :       0.00       0.00          0          0          0          0          0          0
  clique           :       0.54       0.00         22          0          0          0          0          0
  closecuts        :       0.00       0.00          0          0          0          0          0          0
  cmir             :       0.00       0.00          0          0          0          0         31          0
  convexproj       :       0.00       0.00          0          0          0          0          0          0
  disjunctive      :       0.00       0.00          0          0          0          0          0          0
  eccuts           :       0.00       0.00          0          0          0          0          0          0
  flowcover        :       0.00       0.00          0          0          0          0          7          0
  gauge            :       0.00       0.00          0          0          0          0          0          0
  gomory           :       0.84       0.00         10          0          0          0         47          0
  impliedbounds    :       0.00       0.00         22          0          0          0          0          0
  intobj           :       0.00       0.00          0          0          0          0          0          0
  mcf              :       0.00       0.00          1          0          0          0          0          0
  oddcycle         :       0.00       0.00          0          0          0          0          0          0
  rapidlearning    :       0.00       0.00          0          0          0          0          0          0
  strongcg         :       4.49       0.00         20          0          0          0        181          0
  zerohalf         :       0.15       0.00         20          0          0          0         81          0
Pricers            :   ExecTime  SetupTime      Calls       Vars
  problem variables:       0.00          -          0          0
Branching Rules    :   ExecTime  SetupTime   BranchLP  BranchExt   BranchPS    Cutoffs    DomReds       Cuts      Conss   Children
  allfullstrong    :       0.00       0.00          0          0          0          0          0          0          0          0
  cloud            :       0.00       0.00          0          0          0          0          0          0          0          0
  distribution     :       0.00       0.00          0          0          0          0          0          0          0          0
  fullstrong       :       0.00       0.00          0          0          0          0          0          0          0          0
  inference        :       0.00       0.00          0          0          0          0          0          0          0          0
  leastinf         :       0.00       0.00          0          0          0          0          0          0          0          0
  lookahead        :       0.00       0.00          0          0          0          0          0          0          0          0
  mostinf          :       0.00       0.00          0          0          0          0          0          0          0          0
  multaggr         :       0.00       0.00          0          0          0          0          0          0          0          0
  nodereopt        :       0.00       0.00          0          0          0          0          0          0          0          0
  pscost           :       0.00       0.00          0          0          0          0          0          0          0          0
  random           :       0.00       0.00          0          0          0          0          0          0          0          0
  relpscost        :       0.00       0.00          0          0          0          0          0          0          0          0
Primal Heuristics  :   ExecTime  SetupTime      Calls      Found       Best
  LP solutions     :       0.00          -          -          0          0
  relax solutions  :       0.00          -          -          0          0
  pseudo solutions :       0.00          -          -          0          0
  strong branching :       0.00          -          -          0          0
  actconsdiving    :       0.00       0.00          0          0          0
  alns             :       0.00       0.00          0          0          0
  bound            :       0.00       0.00          0          0          0
  clique           :       0.12       0.00          1          1          1
  coefdiving       :       0.00       0.00          0          0          0
  completesol      :       0.00       0.00          0          0          0
  conflictdiving   :       0.00       0.00          0          0          0
  crossover        :       0.00       0.00          0          0          0
  dins             :       0.00       0.00          0          0          0
  distributiondivin:       0.00       0.00          0          0          0
  dualval          :       0.00       0.00          0          0          0
  farkasdiving     :       1.09       0.00          1          1          1
  feaspump         :       0.00       0.00          0          0          0
  fixandinfer      :       0.00       0.00          0          0          0
  fracdiving       :       0.00       0.00          0          0          0
  gins             :       0.00       0.00          0          0          0
  guideddiving     :       0.00       0.00          0          0          0
  indicator        :       0.00       0.00          0          0          0
  intdiving        :       0.00       0.00          0          0          0
  intshifting      :       0.00       0.00          0          0          0
  linesearchdiving :       0.00       0.00          0          0          0
  localbranching   :       0.00       0.00          0          0          0
  locks            :       0.02       0.00          1          0          0
  lpface           :       0.00       0.00          0          0          0
  mpec             :       0.00       0.00          0          0          0
  multistart       :       0.00       0.00          0          0          0
  mutation         :       0.00       0.00          0          0          0
  nlpdiving        :       0.00       0.00          0          0          0
  objpscostdiving  :       0.00       0.00          0          0          0
  octane           :       0.00       0.00          0          0          0
  ofins            :       0.00       0.00          0          0          0
  oneopt           :       0.00       0.00          2          0          0
  proximity        :       0.00       0.00          0          0          0
  pscostdiving     :       0.00       0.00          0          0          0
  randrounding     :       0.12       0.00         23          0          0
  rens             :       0.00       0.00          0          0          0
  reoptsols        :       0.00       0.00          0          0          0
  repair           :       0.00       0.00          0          0          0
  rins             :       0.00       0.00          0          0          0
  rootsoldiving    :       0.00       0.00          0          0          0
  rounding         :       0.00       0.00         23          0          0
  shiftandpropagate:       0.00       0.00          0          0          0
  shifting         :       0.10       0.00         23          1          1
  simplerounding   :       0.00       0.00          0          0          0
  subnlp           :       0.00       0.00          0          0          0
  trivial          :       0.00       0.00          2          0          0
  trivialnegation  :       0.00       0.00          0          0          0
  trysol           :       0.00       0.00          0          0          0
  twoopt           :       0.00       0.00          0          0          0
  undercover       :       0.00       0.00          0          0          0
  vbounds          :       0.11       0.00          1          0          0
  veclendiving     :       0.00       0.00          0          0          0
  zeroobj          :       0.00       0.00          0          0          0
  zirounding       :       0.00       0.00          1          0          0
  other solutions  :          -          -          -          0          -
Diving Statistics  :      Calls      Nodes   LP Iters Backtracks  Conflicts   MinDepth   MaxDepth   AvgDepth  RoundSols  NLeafSols  MinSolDpt  MaxSolDpt  AvgSolDpt
  actconsdiving    :          0          -          -          -          -          -          -          -          -          -          -          -          -
  coefdiving       :          0          -          -          -          -          -          -          -          -          -          -          -          -
  conflictdiving   :          0          -          -          -          -          -          -          -          -          -          -          -          -
  distributiondivin:          0          -          -          -          -          -          -          -          -          -          -          -          -
  farkasdiving     :          1        465       6811          0          0        466        466      466.0          0          1        466        466      466.0
  fracdiving       :          0          -          -          -          -          -          -          -          -          -          -          -          -
  guideddiving     :          0          -          -          -          -          -          -          -          -          -          -          -          -
  linesearchdiving :          0          -          -          -          -          -          -          -          -          -          -          -          -
  pscostdiving     :          0          -          -          -          -          -          -          -          -          -          -          -          -
  veclendiving     :          0          -          -          -          -          -          -          -          -          -          -          -          -
Neighborhoods      :      Calls  SetupTime  SolveTime SolveNodes       Sols       Best       Exp3  EpsGreedy        UCB TgtFixRate  Opt  Inf Node Stal  Sol  Usr Othr Actv
  rens             :          0       0.00       0.00          0          0          0    0.00000   -1.00000    1.00000      0.900    0    0    0    0    0    0    0    1
  rins             :          0       0.00       0.00          0          0          0    0.00000   -1.00000    1.00000      0.900    0    0    0    0    0    0    0    1
  mutation         :          0       0.00       0.00          0          0          0    0.00000   -1.00000    1.00000      0.900    0    0    0    0    0    0    0    1
  localbranching   :          0       0.00       0.00          0          0          0    0.00000   -1.00000    1.00000      0.900    0    0    0    0    0    0    0    1
  crossover        :          0       0.00       0.00          0          0          0    0.00000   -1.00000    1.00000      0.900    0    0    0    0    0    0    0    1
  proximity        :          0       0.00       0.00          0          0          0    0.00000   -1.00000    1.00000      0.900    0    0    0    0    0    0    0    1
  zeroobjective    :          0       0.00       0.00          0          0          0    0.00000   -1.00000    1.00000      0.900    0    0    0    0    0    0    0    1
  dins             :          0       0.00       0.00          0          0          0    0.00000   -1.00000    1.00000      0.900    0    0    0    0    0    0    0    1
LP                 :       Time      Calls Iterations  Iter/call   Iter/sec  Time-0-It Calls-0-It    ItLimit
  primal LP        :       0.10          2          0       0.00       0.00       0.10          2
  dual LP          :       0.43         27       5382     234.00   12516.28       0.00          4
  lex dual LP      :       0.00          0          0       0.00          -
  barrier LP       :       0.00          0          0       0.00          -       0.00          0
  resolve instable :       0.00          0          0       0.00          -
  diving/probing LP:       0.85        467       7066      15.13    8312.94
  strong branching :       0.00          0          0       0.00          -          -          -          0
    (at root node) :          -          0          0       0.00          -
  conflict analysis:       0.00          1         10      10.00          -
B&B Tree           :
  number of runs   :          1
  nodes            :          1 (0 internal, 1 leaves)
  feasible leaves  :          0
  infeas. leaves   :          0
  objective leaves :          1
  nodes (total)    :          1 (0 internal, 1 leaves)
  nodes left       :          0
  max depth        :          0
  max depth (total):          0
  backtracks       :          0 (0.0%)
  early backtracks :          0 (0.0%)
  nodes exc. ref.  :          0 (0.0%)
  delayed cutoffs  :          0
  repropagations   :          0 (0 domain reductions, 0 cutoffs)
  avg switch length:       2.00
  switching time   :       0.00
Root Node          :
  First LP value   : +1.17430000000000e+06
  First LP Iters   :       1613 (32260.00 Iter/sec)
  First LP Time    :       0.05
  Final Dual Bound : +1.17430000000000e+06
  Final Root Iters :       5382
  Root LP Estimate :                     -
Solution           :
  Solutions found  :          3 (3 improvements)
  First Solution   : +2.80670000000000e+06   (in run 1, after 1 nodes, 0.15 seconds, depth 811, found by <clique>)
  Gap First Sol.   :     805.39 %
  Gap Last Sol.    :       0.00 %
  Primal Bound     : +1.17430000000000e+06   (in run 1, after 1 nodes, 8.73 seconds, depth 466, found by <farkasdiving>)
  Dual Bound       : +1.17430000000000e+06
  Gap              :       0.00 %
  Avg. Gap         :      49.52 % (432.27 primal-dual integral)
  Tree Data        : 1 nodes (1 visited, 0 inner, 1 leaves, 0 open), progress: 1.0000
Tree Estimation    :       estim       value       trend  resolution      smooth
  wbe              :           1           -           -           -           -
  tree profile     :          -1           -           -           -           -
  gap              :           1     1.00000     1.00000           1           1
  progress         :           1     1.00000     1.00000           1           1
  leaf-frequency   :           1     0.50000     1.00000           1           1
  ssg              :           1     0.00000    -1.00000           1           1
  open-nodes       :           1     0.00000     0.00000           1           1


SCIP> checksol

check best solution
solution is feasible in original problem
Violation          :    absolute    relative
  bounds           : 2.22045e-16 2.22045e-16
  integrality      : 2.22045e-16           -
  LP rows          : 0.00000e+00 0.00000e+00
  constraints      : 0.00000e+00 0.00000e+00

SCIP> write sol /local/tmp/bzfhende-tmpdir/bzfhende.MMMc.244_neos-555298.scip.M6440.enable_treeprofile.sol

written solution information to file </local/tmp/bzfhende-tmpdir/bzfhende.MMMc.244_neos-555298.scip.M640.enable_treeprofile.sol>

SCIP> quit

Disabling tree profile data collection
Read MPS: 1
MIP has 4827 vars and 2755 constraints
Read SOL: 1
Objective value computed by solver: 1174300

Integrality tolerance: 1/10000
Linear tolerance: 1/10000
Objective tolerance: 1/10000

Check SOL: Integrality 1 Constraints 1 Objective 1
Maximum violations: Integrality 0 Constraints 0 Objective 0
@04 1566511677
-----------------------------
Fr 23. Aug 00:07:57 CEST 2019
-----------------------------

=ready=
